liczbaMiejsc = 48;
liczbaPracownikow = 24;
dMin = 2.5;
procentowaZajetoscMiejscWFirmie = 0.5;
macierzOdleglosci = [[0, 1.5, 3.0, 4.5, 6.0, 7.5, 2.0, 2.5, 3.6, 4.9, 6.3, 7.8, 5.0, 5.2, 5.8, 6.7, 7.8, 9.0, 7.0, 7.2, 7.6, 8.3, 9.2, 10.3, 10.0, 10.1, 10.4, 11.0, 11.7, 12.5, 12.0, 12.1, 12.4, 12.8, 13.4, 14.2, 15.0, 15.1, 15.3, 15.7, 16.2, 16.8, 17.0, 17.1, 17.3, 17.6, 18.0, 18.6], [0, 0, 1.5, 3.0, 4.5, 6.0, 2.5, 2.0, 2.5, 3.6, 4.9, 6.3, 5.2, 5.0, 5.2, 5.8, 6.7, 7.8, 7.2, 7.0, 7.2, 7.6, 8.3, 9.2, 10.1, 10.0, 10.1, 10.4, 11.0, 11.7, 12.1, 12.0, 12.1, 12.4, 12.8, 13.4, 15.1, 15.0, 15.1, 15.3, 15.7, 16.2, 17.1, 17.0, 17.1, 17.3, 17.6, 18.0], [0, 0, 0, 1.5, 3.0, 4.5, 3.6, 2.5, 2.0, 2.5, 3.6, 4.9, 5.8, 5.2, 5.0, 5.2, 5.8, 6.7, 7.6, 7.2, 7.0, 7.2, 7.6, 8.3, 10.4, 10.1, 10.0, 10.1, 10.4, 11.0, 12.4, 12.1, 12.0, 12.1, 12.4, 12.8, 15.3, 15.1, 15.0, 15.1, 15.3, 15.7, 17.3, 17.1, 17.0, 17.1, 17.3, 17.6], [0, 0, 0, 0, 1.5, 3.0, 4.9, 3.6, 2.5, 2.0, 2.5, 3.6, 6.7, 5.8, 5.2, 5.0, 5.2, 5.8, 8.3, 7.6, 7.2, 7.0, 7.2, 7.6, 11.0, 10.4, 10.1, 10.0, 10.1, 10.4, 12.8, 12.4, 12.1, 12.0, 12.1, 12.4, 15.7, 15.3, 15.1, 15.0, 15.1, 15.3, 17.6, 17.3, 17.1, 17.0, 17.1, 17.3], [0, 0, 0, 0, 0, 1.5, 6.3, 4.9, 3.6, 2.5, 2.0, 2.5, 7.8, 6.7, 5.8, 5.2, 5.0, 5.2, 9.2, 8.3, 7.6, 7.2, 7.0, 7.2, 11.7, 11.0, 10.4, 10.1, 10.0, 10.1, 13.4, 12.8, 12.4, 12.1, 12.0, 12.1, 16.2, 15.7, 15.3, 15.1, 15.0, 15.1, 18.0, 17.6, 17.3, 17.1, 17.0, 17.1], [0, 0, 0, 0, 0, 0, 7.8, 6.3, 4.9, 3.6, 2.5, 2.0, 9.0, 7.8, 6.7, 5.8, 5.2, 5.0, 10.3, 9.2, 8.3, 7.6, 7.2, 7.0, 12.5, 11.7, 11.0, 10.4, 10.1, 10.0, 14.2, 13.4, 12.8, 12.4, 12.1, 12.0, 16.8, 16.2, 15.7, 15.3, 15.1, 15.0, 18.6, 18.0, 17.6, 17.3, 17.1, 17.0], [0, 0, 0, 0, 0, 0, 0, 1.5, 3.0, 4.5, 6.0, 7.5, 3.0, 3.4, 4.2, 5.4, 6.7, 8.1, 5.0, 5.2, 5.8, 6.7, 7.8, 9.0, 8.0, 8.1, 8.5, 9.2, 10.0, 11.0, 10.0, 10.1, 10.4, 11.0, 11.7, 12.5, 13.0, 13.1, 13.3, 13.8, 14.3, 15.0, 15.0, 15.1, 15.3, 15.7, 16.2, 16.8], [0, 0, 0, 0, 0, 0, 0, 0, 1.5, 3.0, 4.5, 6.0, 3.4, 3.0, 3.4, 4.2, 5.4, 6.7, 5.2, 5.0, 5.2, 5.8, 6.7, 7.8, 8.1, 8.0, 8.1, 8.5, 9.2, 10.0, 10.1, 10.0, 10.1, 10.4, 11.0, 11.7, 13.1, 13.0, 13.1, 13.3, 13.8, 14.3, 15.1, 15.0, 15.1, 15.3, 15.7, 16.2], [0, 0, 0, 0, 0, 0, 0, 0, 0, 1.5, 3.0, 4.5, 4.2, 3.4, 3.0, 3.4, 4.2, 5.4, 5.8, 5.2, 5.0, 5.2, 5.8, 6.7, 8.5, 8.1, 8.0, 8.1, 8.5, 9.2, 10.4, 10.1, 10.0, 10.1, 10.4, 11.0, 13.3, 13.1, 13.0, 13.1, 13.3, 13.8, 15.3, 15.1, 15.0, 15.1, 15.3, 15.7], [0, 0, 0, 0, 0, 0, 0, 0, 0, 0, 1.5, 3.0, 5.4, 4.2, 3.4, 3.0, 3.4, 4.2, 6.7, 5.8, 5.2, 5.0, 5.2, 5.8, 9.2, 8.5, 8.1, 8.0, 8.1, 8.5, 11.0, 10.4, 10.1, 10.0, 10.1, 10.4, 13.8, 13.3, 13.1, 13.0, 13.1, 13.3, 15.7, 15.3, 15.1, 15.0, 15.1, 15.3], [0, 0, 0, 0, 0, 0, 0, 0, 0, 0, 0, 1.5, 6.7, 5.4, 4.2, 3.4, 3.0, 3.4, 7.8, 6.7, 5.8, 5.2, 5.0, 5.2, 10.0, 9.2, 8.5, 8.1, 8.0, 8.1, 11.7, 11.0, 10.4, 10.1, 10.0, 10.1, 14.3, 13.8, 13.3, 13.1, 13.0, 13.1, 16.2, 15.7, 15.3, 15.1, 15.0, 15.1], [0, 0, 0, 0, 0, 0, 0, 0, 0, 0, 0, 0, 8.1, 6.7, 5.4, 4.2, 3.4, 3.0, 9.0, 7.8, 6.7, 5.8, 5.2, 5.0, 11.0, 10.0, 9.2, 8.5, 8.1, 8.0, 12.5, 11.7, 11.0, 10.4, 10.1, 10.0, 15.0, 14.3, 13.8, 13.3, 13.1, 13.0, 16.8, 16.2, 15.7, 15.3, 15.1, 15.0], [0, 0, 0, 0, 0, 0, 0, 0, 0, 0, 0, 0, 0, 1.5, 3.0, 4.5, 6.0, 7.5, 2.0, 2.5, 3.6, 4.9, 6.3, 7.8, 5.0, 5.2, 5.8, 6.7, 7.8, 9.0, 7.0, 7.2, 7.6, 8.3, 9.2, 10.3, 10.0, 10.1, 10.4, 11.0, 11.7, 12.5, 12.0, 12.1, 12.4, 12.8, 13.4, 14.2], [0, 0, 0, 0, 0, 0, 0, 0, 0, 0, 0, 0, 0, 0, 1.5, 3.0, 4.5, 6.0, 2.5, 2.0, 2.5, 3.6, 4.9, 6.3, 5.2, 5.0, 5.2, 5.8, 6.7, 7.8, 7.2, 7.0, 7.2, 7.6, 8.3, 9.2, 10.1, 10.0, 10.1, 10.4, 11.0, 11.7, 12.1, 12.0, 12.1, 12.4, 12.8, 13.4], [0, 0, 0, 0, 0, 0, 0, 0, 0, 0, 0, 0, 0, 0, 0, 1.5, 3.0, 4.5, 3.6, 2.5, 2.0, 2.5, 3.6, 4.9, 5.8, 5.2, 5.0, 5.2, 5.8, 6.7, 7.6, 7.2, 7.0, 7.2, 7.6, 8.3, 10.4, 10.1, 10.0, 10.1, 10.4, 11.0, 12.4, 12.1, 12.0, 12.1, 12.4, 12.8], [0, 0, 0, 0, 0, 0, 0, 0, 0, 0, 0, 0, 0, 0, 0, 0, 1.5, 3.0, 4.9, 3.6, 2.5, 2.0, 2.5, 3.6, 6.7, 5.8, 5.2, 5.0, 5.2, 5.8, 8.3, 7.6, 7.2, 7.0, 7.2, 7.6, 11.0, 10.4, 10.1, 10.0, 10.1, 10.4, 12.8, 12.4, 12.1, 12.0, 12.1, 12.4], [0, 0, 0, 0, 0, 0, 0, 0, 0, 0, 0, 0, 0, 0, 0, 0, 0, 1.5, 6.3, 4.9, 3.6, 2.5, 2.0, 2.5, 7.8, 6.7, 5.8, 5.2, 5.0, 5.2, 9.2, 8.3, 7.6, 7.2, 7.0, 7.2, 11.7, 11.0, 10.4, 10.1, 10.0, 10.1, 13.4, 12.8, 12.4, 12.1, 12.0, 12.1], [0, 0, 0, 0, 0, 0, 0, 0, 0, 0, 0, 0, 0, 0, 0, 0, 0, 0, 7.8, 6.3, 4.9, 3.6, 2.5, 2.0, 9.0, 7.8, 6.7, 5.8, 5.2, 5.0, 10.3, 9.2, 8.3, 7.6, 7.2, 7.0, 12.5, 11.7, 11.0, 10.4, 10.1, 10.0, 14.2, 13.4, 12.8, 12.4, 12.1, 12.0], [0, 0, 0, 0, 0, 0, 0, 0, 0, 0, 0, 0, 0, 0, 0, 0, 0, 0, 0, 1.5, 3.0, 4.5, 6.0, 7.5, 3.0, 3.4, 4.2, 5.4, 6.7, 8.1, 5.0, 5.2, 5.8, 6.7, 7.8, 9.0, 8.0, 8.1, 8.5, 9.2, 10.0, 11.0, 10.0, 10.1, 10.4, 11.0, 11.7, 12.5], [0, 0, 0, 0, 0, 0, 0, 0, 0, 0, 0, 0, 0, 0, 0, 0, 0, 0, 0, 0, 1.5, 3.0, 4.5, 6.0, 3.4, 3.0, 3.4, 4.2, 5.4, 6.7, 5.2, 5.0, 5.2, 5.8, 6.7, 7.8, 8.1, 8.0, 8.1, 8.5, 9.2, 10.0, 10.1, 10.0, 10.1, 10.4, 11.0, 11.7], [0, 0, 0, 0, 0, 0, 0, 0, 0, 0, 0, 0, 0, 0, 0, 0, 0, 0, 0, 0, 0, 1.5, 3.0, 4.5, 4.2, 3.4, 3.0, 3.4, 4.2, 5.4, 5.8, 5.2, 5.0, 5.2, 5.8, 6.7, 8.5, 8.1, 8.0, 8.1, 8.5, 9.2, 10.4, 10.1, 10.0, 10.1, 10.4, 11.0], [0, 0, 0, 0, 0, 0, 0, 0, 0, 0, 0, 0, 0, 0, 0, 0, 0, 0, 0, 0, 0, 0, 1.5, 3.0, 5.4, 4.2, 3.4, 3.0, 3.4, 4.2, 6.7, 5.8, 5.2, 5.0, 5.2, 5.8, 9.2, 8.5, 8.1, 8.0, 8.1, 8.5, 11.0, 10.4, 10.1, 10.0, 10.1, 10.4], [0, 0, 0, 0, 0, 0, 0, 0, 0, 0, 0, 0, 0, 0, 0, 0, 0, 0, 0, 0, 0, 0, 0, 1.5, 6.7, 5.4, 4.2, 3.4, 3.0, 3.4, 7.8, 6.7, 5.8, 5.2, 5.0, 5.2, 10.0, 9.2, 8.5, 8.1, 8.0, 8.1, 11.7, 11.0, 10.4, 10.1, 10.0, 10.1], [0, 0, 0, 0, 0, 0, 0, 0, 0, 0, 0, 0, 0, 0, 0, 0, 0, 0, 0, 0, 0, 0, 0, 0, 8.1, 6.7, 5.4, 4.2, 3.4, 3.0, 9.0, 7.8, 6.7, 5.8, 5.2, 5.0, 11.0, 10.0, 9.2, 8.5, 8.1, 8.0, 12.5, 11.7, 11.0, 10.4, 10.1, 10.0], [0, 0, 0, 0, 0, 0, 0, 0, 0, 0, 0, 0, 0, 0, 0, 0, 0, 0, 0, 0, 0, 0, 0, 0, 0, 1.5, 3.0, 4.5, 6.0, 7.5, 2.0, 2.5, 3.6, 4.9, 6.3, 7.8, 5.0, 5.2, 5.8, 6.7, 7.8, 9.0, 7.0, 7.2, 7.6, 8.3, 9.2, 10.3], [0, 0, 0, 0, 0, 0, 0, 0, 0, 0, 0, 0, 0, 0, 0, 0, 0, 0, 0, 0, 0, 0, 0, 0, 0, 0, 1.5, 3.0, 4.5, 6.0, 2.5, 2.0, 2.5, 3.6, 4.9, 6.3, 5.2, 5.0, 5.2, 5.8, 6.7, 7.8, 7.2, 7.0, 7.2, 7.6, 8.3, 9.2], [0, 0, 0, 0, 0, 0, 0, 0, 0, 0, 0, 0, 0, 0, 0, 0, 0, 0, 0, 0, 0, 0, 0, 0, 0, 0, 0, 1.5, 3.0, 4.5, 3.6, 2.5, 2.0, 2.5, 3.6, 4.9, 5.8, 5.2, 5.0, 5.2, 5.8, 6.7, 7.6, 7.2, 7.0, 7.2, 7.6, 8.3], [0, 0, 0, 0, 0, 0, 0, 0, 0, 0, 0, 0, 0, 0, 0, 0, 0, 0, 0, 0, 0, 0, 0, 0, 0, 0, 0, 0, 1.5, 3.0, 4.9, 3.6, 2.5, 2.0, 2.5, 3.6, 6.7, 5.8, 5.2, 5.0, 5.2, 5.8, 8.3, 7.6, 7.2, 7.0, 7.2, 7.6], [0, 0, 0, 0, 0, 0, 0, 0, 0, 0, 0, 0, 0, 0, 0, 0, 0, 0, 0, 0, 0, 0, 0, 0, 0, 0, 0, 0, 0, 1.5, 6.3, 4.9, 3.6, 2.5, 2.0, 2.5, 7.8, 6.7, 5.8, 5.2, 5.0, 5.2, 9.2, 8.3, 7.6, 7.2, 7.0, 7.2], [0, 0, 0, 0, 0, 0, 0, 0, 0, 0, 0, 0, 0, 0, 0, 0, 0, 0, 0, 0, 0, 0, 0, 0, 0, 0, 0, 0, 0, 0, 7.8, 6.3, 4.9, 3.6, 2.5, 2.0, 9.0, 7.8, 6.7, 5.8, 5.2, 5.0, 10.3, 9.2, 8.3, 7.6, 7.2, 7.0], [0, 0, 0, 0, 0, 0, 0, 0, 0, 0, 0, 0, 0, 0, 0, 0, 0, 0, 0, 0, 0, 0, 0, 0, 0, 0, 0, 0, 0, 0, 0, 1.5, 3.0, 4.5, 6.0, 7.5, 3.0, 3.4, 4.2, 5.4, 6.7, 8.1, 5.0, 5.2, 5.8, 6.7, 7.8, 9.0], [0, 0, 0, 0, 0, 0, 0, 0, 0, 0, 0, 0, 0, 0, 0, 0, 0, 0, 0, 0, 0, 0, 0, 0, 0, 0, 0, 0, 0, 0, 0, 0, 1.5, 3.0, 4.5, 6.0, 3.4, 3.0, 3.4, 4.2, 5.4, 6.7, 5.2, 5.0, 5.2, 5.8, 6.7, 7.8], [0, 0, 0, 0, 0, 0, 0, 0, 0, 0, 0, 0, 0, 0, 0, 0, 0, 0, 0, 0, 0, 0, 0, 0, 0, 0, 0, 0, 0, 0, 0, 0, 0, 1.5, 3.0, 4.5, 4.2, 3.4, 3.0, 3.4, 4.2, 5.4, 5.8, 5.2, 5.0, 5.2, 5.8, 6.7], [0, 0, 0, 0, 0, 0, 0, 0, 0, 0, 0, 0, 0, 0, 0, 0, 0, 0, 0, 0, 0, 0, 0, 0, 0, 0, 0, 0, 0, 0, 0, 0, 0, 0, 1.5, 3.0, 5.4, 4.2, 3.4, 3.0, 3.4, 4.2, 6.7, 5.8, 5.2, 5.0, 5.2, 5.8], [0, 0, 0, 0, 0, 0, 0, 0, 0, 0, 0, 0, 0, 0, 0, 0, 0, 0, 0, 0, 0, 0, 0, 0, 0, 0, 0, 0, 0, 0, 0, 0, 0, 0, 0, 1.5, 6.7, 5.4, 4.2, 3.4, 3.0, 3.4, 7.8, 6.7, 5.8, 5.2, 5.0, 5.2], [0, 0, 0, 0, 0, 0, 0, 0, 0, 0, 0, 0, 0, 0, 0, 0, 0, 0, 0, 0, 0, 0, 0, 0, 0, 0, 0, 0, 0, 0, 0, 0, 0, 0, 0, 0, 8.1, 6.7, 5.4, 4.2, 3.4, 3.0, 9.0, 7.8, 6.7, 5.8, 5.2, 5.0], [0, 0, 0, 0, 0, 0, 0, 0, 0, 0, 0, 0, 0, 0, 0, 0, 0, 0, 0, 0, 0, 0, 0, 0, 0, 0, 0, 0, 0, 0, 0, 0, 0, 0, 0, 0, 0, 1.5, 3.0, 4.5, 6.0, 7.5, 2.0, 2.5, 3.6, 4.9, 6.3, 7.8], [0, 0, 0, 0, 0, 0, 0, 0, 0, 0, 0, 0, 0, 0, 0, 0, 0, 0, 0, 0, 0, 0, 0, 0, 0, 0, 0, 0, 0, 0, 0, 0, 0, 0, 0, 0, 0, 0, 1.5, 3.0, 4.5, 6.0, 2.5, 2.0, 2.5, 3.6, 4.9, 6.3], [0, 0, 0, 0, 0, 0, 0, 0, 0, 0, 0, 0, 0, 0, 0, 0, 0, 0, 0, 0, 0, 0, 0, 0, 0, 0, 0, 0, 0, 0, 0, 0, 0, 0, 0, 0, 0, 0, 0, 1.5, 3.0, 4.5, 3.6, 2.5, 2.0, 2.5, 3.6, 4.9], [0, 0, 0, 0, 0, 0, 0, 0, 0, 0, 0, 0, 0, 0, 0, 0, 0, 0, 0, 0, 0, 0, 0, 0, 0, 0, 0, 0, 0, 0, 0, 0, 0, 0, 0, 0, 0, 0, 0, 0, 1.5, 3.0, 4.9, 3.6, 2.5, 2.0, 2.5, 3.6], [0, 0, 0, 0, 0, 0, 0, 0, 0, 0, 0, 0, 0, 0, 0, 0, 0, 0, 0, 0, 0, 0, 0, 0, 0, 0, 0, 0, 0, 0, 0, 0, 0, 0, 0, 0, 0, 0, 0, 0, 0, 1.5, 6.3, 4.9, 3.6, 2.5, 2.0, 2.5], [0, 0, 0, 0, 0, 0, 0, 0, 0, 0, 0, 0, 0, 0, 0, 0, 0, 0, 0, 0, 0, 0, 0, 0, 0, 0, 0, 0, 0, 0, 0, 0, 0, 0, 0, 0, 0, 0, 0, 0, 0, 0, 7.8, 6.3, 4.9, 3.6, 2.5, 2.0], [0, 0, 0, 0, 0, 0, 0, 0, 0, 0, 0, 0, 0, 0, 0, 0, 0, 0, 0, 0, 0, 0, 0, 0, 0, 0, 0, 0, 0, 0, 0, 0, 0, 0, 0, 0, 0, 0, 0, 0, 0, 0, 0, 1.5, 3.0, 4.5, 6.0, 7.5], [0, 0, 0, 0, 0, 0, 0, 0, 0, 0, 0, 0, 0, 0, 0, 0, 0, 0, 0, 0, 0, 0, 0, 0, 0, 0, 0, 0, 0, 0, 0, 0, 0, 0, 0, 0, 0, 0, 0, 0, 0, 0, 0, 0, 1.5, 3.0, 4.5, 6.0], [0, 0, 0, 0, 0, 0, 0, 0, 0, 0, 0, 0, 0, 0, 0, 0, 0, 0, 0, 0, 0, 0, 0, 0, 0, 0, 0, 0, 0, 0, 0, 0, 0, 0, 0, 0, 0, 0, 0, 0, 0, 0, 0, 0, 0, 1.5, 3.0, 4.5], [0, 0, 0, 0, 0, 0, 0, 0, 0, 0, 0, 0, 0, 0, 0, 0, 0, 0, 0, 0, 0, 0, 0, 0, 0, 0, 0, 0, 0, 0, 0, 0, 0, 0, 0, 0, 0, 0, 0, 0, 0, 0, 0, 0, 0, 0, 1.5, 3.0], [0, 0, 0, 0, 0, 0, 0, 0, 0, 0, 0, 0, 0, 0, 0, 0, 0, 0, 0, 0, 0, 0, 0, 0, 0, 0, 0, 0, 0, 0, 0, 0, 0, 0, 0, 0, 0, 0, 0, 0, 0, 0, 0, 0, 0, 0, 0, 1.5], [0, 0, 0, 0, 0, 0, 0, 0, 0, 0, 0, 0, 0, 0, 0, 0, 0, 0, 0, 0, 0, 0, 0, 0, 0, 0, 0, 0, 0, 0, 0, 0, 0, 0, 0, 0, 0, 0, 0, 0, 0, 0, 0, 0, 0, 0, 0, 0]];